NAME: tsp25_12
COMMENT: 25-tsp problem (Padberg/Rinaldi)
TYPE: TSP
DIMENSION: 25
EDGE_WEIGHT_TYPE : EUC_2D
NODE_COORD_SECTION
1 16 31
2 38 30
3 23 8
4 37 3
5 24 26
6 0 26
7 29 32
8 24 25
9 39 16
10 29 17
11 17 21
12 8 10
13 14 15
14 1 27
15 1 37
16 31 3
17 23 39
18 23 7
19 18 14
20 30 5
21 24 2
22 7 37
23 1 7
24 33 32
25 29 10
